
Maximize
obj: x1 +86 x13b +45 x142 +64 x148 +64 x14b +45 x14c +86 x14d
	+26 x14e +26 x14f +11 x152 +55 x153 +62 x15b +82 x161 +82 x164 +62 x165
	+56 x166 +38 x169 +62 x16c +36 x16d +51 x16e +99 x16f +27 x170 +73 x182
	+4 x183 +5 x185 +4 x195 +57 x19c +10 x19d +36 x19e +49 x1a2 +27 x1a7
	+57 x1ae +35 x1af +36 x1b0 +78 x1ba +136 x1f1 +136 x1f3 +29 x1f6 +29 x1f9
	+4 x20c +10 x211 +36 x212 +78 x21c +136 x220 +27 x225 +35 x22a +36 x22b
	+36 x22c +4 x22d +4 x22e +5 x22f +5 x230 +4 x231 +4 x232 +100 x237
	+29 x23a +29 x23d +109 x240 +8 x243 +8 x246 +101 x248 +59 x24f +26 x250
	+28 x251 +33 x253 +27 x254 +28 x256 +28 x257 +29 x259 +65 x25b +73 x265
	+19 x266 +20 x268 +31 x270 +28 x271 +33 x273 +27 x274 +28 x276 +28 x277
	+29 x279 +65 x27b +26 x27c +18 x27f +18 x282 +21 x284 +26 x299 +18 x29c
	+18 x29f +21 x2a1 +24 x2a2 +9 x2a5 +9 x2a8 +9 x2ae +24 x2c1 +9 x2c4
	+9 x2c7 +42 x2ca +9 x2cd +9 x2d0 +9 x2d1 +41 x2d2 +70 x2d4 +105 x2d8
	+45 x2df +561 x2fa +29 x2ff +136 x301 +29 x304

Subject To

x1 = 0

-x16f -x2d8 = -1
-x13b -x14d +x16f = 0
-x142 -x14c +x14d = 0
-x142 -x14c +x2d9 = 0
x145 -x14b -x14c = 0
x145 -x148 -x14b = 0
x147 -x148 -x14b = 0
x147 -x2da -x2db = 0
x19 -x13b -x14d = 0
x19 -x14e -x14f = 0
x14f -x152 -x16d = 0
x1c -x152 -x16e = 0
x1c -x153 -x166 = 0
-x15b -x165 +x166 = 0
-x15b -x165 +x2dc = 0
x15e -x164 -x165 = 0
x15e -x161 -x164 = 0
x160 -x161 -x164 = 0
x160 -x2dd -x2de = 0
x28 -x153 -x166 = 0
x28 -x169 -x16c = 0
-x169 -x16c +x2df = 0
-x14e -x16d +x16e = 0
x16f -x170 -x2d2 = 0
x284 -x2ca -x2d2 = 0
x182 -x284 -x2a1 = 0
x182 -x183 -x185 = 0
-x183 -x185 +x250 = 0
x248 -x250 -x270 = 0
-x195 -x19d +x248 = 0
x19c -x19d -x211 = 0
x19c -x2e1 -x2e2 = 0
x19d -x19e -x1a2 = 0
-x195 -x19e -x1a2 +x2ff = 0
x1a6 -x1f9 -x2ff = 0
x1a6 -x1a7 -x1af = 0
x1ae -x1af -x22a = 0
x1ae -x2e3 -x2e4 = 0
x1af -x1b0 -x1f3 = 0
x1b6 -x1f3 -x237 = 0
x1b6 -x1ba -x1f1 = 0
-x1ba -x21c +x2fa = 0
x1f1 -x2fb -x2fc = 0
x9a -x1a7 -x1b0 -x1f3 = 0
x9a -x1f6 -x1f9 = 0
x1f5 -x1f6 -x1f9 = 0
x1f5 -x2fd -x2fe = 0
x240 -x246 -x248 = 0
-x20c -x211 +x240 = 0
x211 -x212 -x220 = 0
-x21c +x220 -x301 = 0
-x20c -x212 -x220 +x304 = 0
x224 -x23d -x304 = 0
x224 -x225 -x22a = 0
x22a -x22b -x22c = 0
x22c -x22d -x22e = 0
x22e -x22f -x230 = 0
x230 -x231 -x232 = 0
-x22d -x22f -x232 +x237 = 0
xc8 -x225 -x22b -x231 -x237 = 0
xc8 -x23a -x23d = 0
x239 -x23a -x23d = 0
x239 -x302 -x303 = 0
x240 -x243 -x246 = 0
x242 -x243 -x246 = 0
x242 -x305 -x306 = 0
x248 -x307 -x308 = 0
x24f -x250 -x270 = 0
x24f -x309 -x30a = 0
x250 -x251 -x253 = 0
xd9 -x251 -x253 = 0
xd9 -x254 -x256 = 0
xdb -x254 -x256 = 0
xdb -x257 -x259 = 0
-x257 -x259 +x25b = 0
x25b -x30b -x30c = 0
x27c -x282 -x284 = 0
x265 -x27c -x299 = 0
x265 -x266 -x268 = 0
-x266 -x268 +x270 = 0
x270 -x271 -x273 = 0
xf0 -x271 -x273 = 0
xf0 -x274 -x276 = 0
xf2 -x274 -x276 = 0
xf2 -x277 -x279 = 0
-x277 -x279 +x27b = 0
x27b -x30d -x30e = 0
x27c -x27f -x282 = 0
x27e -x27f -x282 = 0
x27e -x30f -x310 = 0
x284 -x311 -x312 = 0
x2a2 -x2a8 -x2d2 = 0
x2a1 -x2a2 -x2c1 = 0
x299 -x29f -x2a1 = 0
x299 -x29c -x29f = 0
x29b -x29c -x29f = 0
x29b -x313 -x314 = 0
x2a1 -x315 -x316 = 0
x2a2 -x2a5 -x2a8 = 0
x2a4 -x2a5 -x2a8 = 0
x2a4 -x317 -x318 = 0
-x2ae -x2d1 +x2d2 = 0
-x2ae -x2d1 +x31a = 0
x2ca -x2d0 -x2d1 = 0
x2c1 -x2c7 -x2ca = 0
x2c1 -x2c4 -x2c7 = 0
x2c3 -x2c4 -x2c7 = 0
x2c3 -x31b -x31c = 0
x2ca -x2cd -x2d0 = 0
x2cc -x2cd -x2d0 = 0
x2cc -x31e -x31f = 0
-x170 -x2d2 +x2d4 = 0
19 x2fa >= 0
-x14b -x14c +20 x14d >= 0
x29f +x2a1 -255 x2a2 -255 x2c1 = 0
x2a8 -254 x2d2 = 0
x1f9 -8 x248 +x2ff = 0
x23d -8 x240 +x304 = 0
-x2d0 -x2d1 +20 x2d2 >= 0
x282 +x284 -255 x2ca -255 x2d2 = 0
x246 +x248 -8 x250 -8 x270 = 0
-x164 -x165 +20 x166 >= 0
x2c7 -254 x2ca = 0

Bounds
x19 >= 0
x1c >= 0
x28 >= 0
x9a >= 0
xc8 >= 0
xd9 >= 0
xdb >= 0
xf0 >= 0
xf2 >= 0
x13b >= 0
x142 >= 0
x145 >= 0
x147 >= 0
x148 >= 0
x14b >= 0
x14c >= 0
x14d >= 0
x14e >= 0
x14f >= 0
x152 >= 0
x153 >= 0
x15b >= 0
x15e >= 0
x160 >= 0
x161 >= 0
x164 >= 0
x165 >= 0
x166 >= 0
x169 >= 0
x16c >= 0
x16d >= 0
x16e >= 0
x16f >= 0
x170 >= 0
x182 >= 0
x183 >= 0
x185 >= 0
x195 >= 0
x19c >= 0
x19d >= 0
x19e >= 0
x1a2 >= 0
x1a6 >= 0
x1a7 >= 0
x1ae >= 0
x1af >= 0
x1b0 >= 0
x1b6 >= 0
x1ba >= 0
x1f1 >= 0
x1f3 >= 0
x1f5 >= 0
x1f6 >= 0
x1f9 >= 0
x20c >= 0
x211 >= 0
x212 >= 0
x21c >= 0
x220 >= 0
x224 >= 0
x225 >= 0
x22a >= 0
x22b >= 0
x22c >= 0
x22d >= 0
x22e >= 0
x22f >= 0
x230 >= 0
x231 >= 0
x232 >= 0
x237 >= 0
x239 >= 0
x23a >= 0
x23d >= 0
x240 >= 0
x242 >= 0
x243 >= 0
x246 >= 0
x248 >= 0
x24f >= 0
x250 >= 0
x251 >= 0
x253 >= 0
x254 >= 0
x256 >= 0
x257 >= 0
x259 >= 0
x25b >= 0
x265 >= 0
x266 >= 0
x268 >= 0
x270 >= 0
x271 >= 0
x273 >= 0
x274 >= 0
x276 >= 0
x277 >= 0
x279 >= 0
x27b >= 0
x27c >= 0
x27e >= 0
x27f >= 0
x282 >= 0
x284 >= 0
x299 >= 0
x29b >= 0
x29c >= 0
x29f >= 0
x2a1 >= 0
x2a2 >= 0
x2a4 >= 0
x2a5 >= 0
x2a8 >= 0
x2ae >= 0
x2c1 >= 0
x2c3 >= 0
x2c4 >= 0
x2c7 >= 0
x2ca >= 0
x2cc >= 0
x2cd >= 0
x2d0 >= 0
x2d1 >= 0
x2d2 >= 0
x2d4 >= 0
x2d8 >= 0
x2d9 >= 0
x2da >= 0
x2db >= 0
x2dc >= 0
x2dd >= 0
x2de >= 0
x2df >= 0
x2e1 >= 0
x2e2 >= 0
x2e3 >= 0
x2e4 >= 0
x2fa >= 0
x2fb >= 0
x2fc >= 0
x2fd >= 0
x2fe >= 0
x2ff >= 0
x301 >= 0
x302 >= 0
x303 >= 0
x304 >= 0
x305 >= 0
x306 >= 0
x307 >= 0
x308 >= 0
x309 >= 0
x30a >= 0
x30b >= 0
x30c >= 0
x30d >= 0
x30e >= 0
x30f >= 0
x310 >= 0
x311 >= 0
x312 >= 0
x313 >= 0
x314 >= 0
x315 >= 0
x316 >= 0
x317 >= 0
x318 >= 0
x31a >= 0
x31b >= 0
x31c >= 0
x31e >= 0
x31f >= 0

Generals
x1
 x19 x1c x28 x9a xc8 xd9 xdb xf0 xf2 x13b
 x142 x145 x147 x148 x14b x14c x14d x14e x14f x152
 x153 x15b x15e x160 x161 x164 x165 x166 x169 x16c
 x16d x16e x16f x170 x182 x183 x185 x195 x19c x19d
 x19e x1a2 x1a6 x1a7 x1ae x1af x1b0 x1b6 x1ba x1f1
 x1f3 x1f5 x1f6 x1f9 x20c x211 x212 x21c x220 x224
 x225 x22a x22b x22c x22d x22e x22f x230 x231 x232
 x237 x239 x23a x23d x240 x242 x243 x246 x248 x24f
 x250 x251 x253 x254 x256 x257 x259 x25b x265 x266
 x268 x270 x271 x273 x274 x276 x277 x279 x27b x27c
 x27e x27f x282 x284 x299 x29b x29c x29f x2a1 x2a2
 x2a4 x2a5 x2a8 x2ae x2c1 x2c3 x2c4 x2c7 x2ca x2cc
 x2cd x2d0 x2d1 x2d2 x2d4 x2d8 x2d9 x2da x2db x2dc
 x2dd x2de x2df x2e1 x2e2 x2e3 x2e4 x2fa x2fb x2fc
 x2fd x2fe x2ff x301 x302 x303 x304 x305 x306 x307
 x308 x309 x30a x30b x30c x30d x30e x30f x310 x311
 x312 x313 x314 x315 x316 x317 x318 x31a x31b x31c
 x31e x31f



End
